(set-info :smt-lib-version 2.6)
(set-logic QF_LIA)
(set-info :category "industrial")
(set-info :status sat)
(declare-fun x0 () Int)
(declare-fun x1 () Int)
(declare-fun x10 () Int)
(declare-fun x11 () Int)
(declare-fun x12 () Int)
(declare-fun x13 () Int)
(declare-fun x14 () Int)
(declare-fun x2 () Int)
(declare-fun x3 () Int)
(declare-fun x4 () Int)
(declare-fun x5 () Int)
(declare-fun x6 () Int)
(declare-fun x7 () Int)
(declare-fun x8 () Int)
(declare-fun x9 () Int)
(assert (let ((?v_3 (* 1 x0)) (?v_0 (* 0 x13)) (?v_13 (* 0 x6)) (?v_5 (* 0 x9)) (?v_31 (* 0 x0)) (?v_20 (* 1 x1)) (?v_2 (* 0 x12)) (?v_17 (* 1 x2)) (?v_29 (* 1 x3)) (?v_6 (* 0 x10)) (?v_7 (* 0 x5)) (?v_32 (* 0 x1)) (?v_14 (* 1 x11)) (?v_21 (* 0 x11)) (?v_11 (* 0 x2)) (?v_28 (* 0 x4)) (?v_43 (* 1 x6)) (?v_36 (* 1 x8)) (?v_25 (* 1 x12)) (?v_15 (* 0 x8)) (?v_30 (* 1 x9))) (let ((?v_19 (+ ?v_15 ?v_30)) (?v_16 (* 1 x10)) (?v_33 (* 0 x7)) (?v_26 (* 1 x13)) (?v_22 (* 0 x3)) (?v_40 (* 1 x4)) (?v_27 (* 0 x14)) (?v_49 (* 2 x8))) (let ((?v_42 (+ ?v_33 (+ ?v_5 ?v_36))) (?v_41 (+ ?v_5 ?v_29)) (?v_48 (* 1 x14)) (?v_46 (* 1 x7)) (?v_45 (+ ?v_33 ?v_29)) (?v_47 (* (- 2) x11)) (?v_8 (* (- 1) x12)) (?v_1 (* (- 1) x4)) (?v_18 (* (- 1) x7)) (?v_4 (* (- 1) x11)) (?v_44 (* (- 1) x6)) (?v_24 (* (- 1) x9)) (?v_9 (* (- 1) x14)) (?v_39 (* (- 1) x8)) (?v_10 (* (- 1) x10)) (?v_12 (* (- 1) x3)) (?v_37 (* (- 1) x1)) (?v_23 (* (- 1) x5)) (?v_34 (* (- 1) x0)) (?v_35 (* (- 1) x13)) (?v_38 (* (- 1) x2))) (and (<= (+ ?v_3 (+ ?v_47 (+ (* (- 2) x5) (+ ?v_8 (+ ?v_0 (+ ?v_1 (+ ?v_13 (+ ?v_18 ?v_5)))))))) 1) (<= (+ ?v_31 (+ ?v_20 (+ ?v_4 (+ ?v_2 (+ ?v_0 (+ ?v_17 (+ ?v_1 (+ ?v_44 (+ ?v_24 ?v_29))))))))) 1) (<= (+ ?v_6 (+ ?v_2 (+ ?v_3 (+ (* 2 x1) (+ ?v_4 (+ ?v_1 (+ ?v_7 (+ (* (- 2) x7) ?v_5)))))))) (- 1)) (<= (+ ?v_32 (+ (* (- 2) x12) (+ ?v_6 (+ ?v_0 (+ ?v_14 (+ ?v_9 (+ ?v_7 ?v_39))))))) 1) (<= (+ ?v_10 (+ ?v_8 (+ ?v_21 (+ ?v_9 (+ ?v_11 (+ ?v_12 (+ ?v_28 (+ ?v_43 ?v_36)))))))) 1) (<= (+ ?v_10 (+ ?v_25 (+ ?v_11 (+ ?v_12 (+ ?v_13 ?v_19))))) (- 1)) (<= (+ (* (- 2) x9) (+ ?v_37 (+ ?v_8 (+ ?v_3 (+ ?v_16 (+ ?v_14 (+ ?v_12 (+ ?v_1 (+ ?v_23 (+ ?v_33 ?v_15)))))))))) (- 1)) (<= (+ ?v_16 (+ ?v_26 (+ ?v_17 (+ ?v_18 (+ ?v_22 (+ ?v_7 (+ ?v_40 ?v_19))))))) 0) (<= (+ ?v_34 (+ ?v_20 (+ ?v_8 (+ ?v_35 (+ ?v_38 (+ ?v_21 (+ ?v_27 (+ ?v_7 (+ ?v_18 (+ ?v_22 ?v_5)))))))))) (- 1)) (<= (+ ?v_23 (+ ?v_24 (+ ?v_6 (+ ?v_21 (+ ?v_25 (+ ?v_26 (+ ?v_27 (+ ?v_17 (+ ?v_28 (+ ?v_18 ?v_29)))))))))) 0) (<= (+ ?v_23 (+ ?v_2 (+ ?v_0 (+ ?v_16 (+ ?v_27 (+ ?v_11 (+ ?v_22 (+ ?v_28 (+ ?v_13 ?v_30))))))))) 0) (<= (+ ?v_31 (+ ?v_20 (+ ?v_6 (+ ?v_2 (+ ?v_0 (+ ?v_27 (+ ?v_28 (+ ?v_7 (+ ?v_13 (+ ?v_5 ?v_49)))))))))) (- 1)) (<= (+ ?v_32 (+ ?v_6 (+ ?v_3 (+ ?v_27 (+ ?v_11 (+ ?v_7 (+ ?v_13 (+ ?v_33 ?v_5)))))))) 1) (<= (+ ?v_34 (+ ?v_35 (+ ?v_23 (+ ?v_32 (+ ?v_16 (+ ?v_14 (+ ?v_27 (+ ?v_11 (+ ?v_28 ?v_42))))))))) 0) (<= (+ ?v_37 (+ ?v_16 (+ ?v_38 (+ ?v_14 (+ ?v_26 (+ ?v_39 (+ ?v_27 (+ ?v_40 (+ (* 1 x5) (+ ?v_30 (* 2 x3))))))))))) 1) (<= (+ ?v_20 (+ ?v_2 (+ ?v_0 (+ ?v_27 (+ ?v_17 (+ ?v_28 (+ ?v_7 (+ ?v_13 ?v_41)))))))) (- 1)) (<= (+ ?v_32 (+ ?v_6 (+ ?v_26 (+ ?v_38 (+ ?v_21 (+ ?v_27 (+ ?v_28 (+ ?v_13 (+ ?v_15 ?v_41))))))))) 0) (<= (+ ?v_35 (+ ?v_14 (+ ?v_25 (+ ?v_27 (+ ?v_22 (+ ?v_28 (+ ?v_13 ?v_42))))))) (- 1)) (<= (+ ?v_34 (+ ?v_32 (+ ?v_10 (+ ?v_25 (+ ?v_17 (+ ?v_1 (+ (* 2 x11) (+ ?v_22 (+ ?v_43 ?v_15))))))))) 0) (<= (+ ?v_37 (+ ?v_23 (+ ?v_16 (+ ?v_21 (+ ?v_2 (+ ?v_5 (+ ?v_48 (+ ?v_17 (+ ?v_22 ?v_46))))))))) 0) (<= (+ ?v_37 (+ ?v_23 (+ ?v_3 (+ ?v_16 (+ ?v_26 ?v_42))))) 0) (<= (+ ?v_34 (+ ?v_6 (+ ?v_2 (+ ?v_0 (+ ?v_28 (+ ?v_14 (+ ?v_33 (+ ?v_15 (+ ?v_29 ?v_30))))))))) (- 1)) (<= (+ (* (- 2) x14) (+ ?v_1 (+ ?v_24 (+ ?v_7 (+ ?v_13 (+ ?v_39 ?v_45)))))) (- 1)) (<= (+ ?v_34 (+ ?v_6 (+ ?v_4 (+ ?v_8 (+ ?v_44 (+ ?v_11 (+ ?v_28 ?v_45))))))) 1) (<= (+ ?v_32 (+ (* (- 2) x4) (+ ?v_4 (+ ?v_25 (+ ?v_26 (+ ?v_38 (+ ?v_7 (+ ?v_15 (+ ?v_5 ?v_46))))))))) 0) (<= (+ ?v_10 (+ ?v_47 (+ ?v_2 (+ ?v_0 (+ ?v_17 (+ ?v_1 (+ ?v_13 (+ ?v_48 (+ ?v_46 ?v_36))))))))) 1) (<= (+ ?v_10 (+ ?v_31 (+ ?v_20 (+ ?v_21 (+ ?v_2 (+ ?v_11 (+ ?v_28 (+ ?v_7 (+ ?v_15 (+ ?v_48 (+ ?v_29 ?v_46))))))))))) (- 1)) (<= (+ ?v_32 (+ ?v_4 (+ ?v_2 (+ ?v_28 (+ ?v_7 (+ ?v_13 (+ ?v_29 (+ ?v_36 ?v_30)))))))) 0) (<= (+ (* (- 2) x0) (+ ?v_37 (+ ?v_0 (+ ?v_14 (+ ?v_9 (+ ?v_17 (+ ?v_29 (+ ?v_46 ?v_49)))))))) 0))))))
(check-sat)
(exit)
